(set-info :smt-lib-version 2.7)
(set-logic ALL)
(set-info :source |
Generated on: 2026-06-22
Generator: pog2smtlib-2.7 github.com/CLEARSY/pog2smtlib-2.7 (-l HO_ALL -rpX)
Application: Discharging a proof obligation generated by aTelierB from an anonymized B machine
Target solver: CVC5 (--mbqi --enum-inst)
Time limit: 1200.0
|)
(set-info :license "www.gnu.org/licenses/gpl-3.0.en.html")
(set-info :category "industrial")
(set-info :status unknown)

(define-sort |BOOL| () Bool)
(declare-sort P 1)
(declare-datatype C (par (T1 T2) ((maplet (fst T1) (snd T2)))))
(define-sort |Z| () Int)
(define-sort |POW BOOL| () (P |BOOL|))
(define-sort |(BOOL x Z)| () (C |BOOL| |Z|))
(define-sort |POW Z| () (P |Z|))
(declare-fun |set.in BOOL| (|BOOL| |POW BOOL|) Bool)
(define-sort |POW (BOOL x Z)| () (P |(BOOL x Z)|))
(declare-fun |set.in Z| (|Z| |POW Z|) Bool)
(declare-fun |set.in (BOOL x Z)| (|(BOOL x Z)| |POW (BOOL x Z)|) Bool)
(declare-const s69 |Z|)
(declare-const s62 |Z|)
(declare-const s27 |POW Z|)
(declare-const s53 |Z|)
(declare-const s91 |Z|)
(declare-const s61 |Z|)
(declare-const s56 |Z|)
(declare-const s51 |Z|)
(declare-const s60 |Z|)
(declare-const s58 |Z|)
(declare-const s29 |Z|)
(declare-const s109 |Z|)
(declare-const s28 |POW (BOOL x Z)|)
(declare-const s30 |Z|)
(declare-const s54 |Z|)
(declare-const s39 |Z|)
(declare-const s40 |Z|)
(declare-const s44 |Z|)
(declare-const s89 |Z|)
(declare-const s120 |Z|)
(declare-const s24 |Z|)
(declare-const s93 |Z|)
(declare-const s90 |Z|)
(declare-const s107 |Z|)
(declare-const s25 |Z|)
(declare-const s63 |Z|)
(declare-const s38 |Z|)
(declare-const s26 |Z|)
(declare-const s21 |POW Z|)
(declare-const s110 |Z|)
(declare-const s41 |Z|)
(declare-const s50 |Z|)
(declare-const s119 |Z|)
(declare-const s35 |Z|)
(declare-const s108 |Z|)
(declare-const s55 |Z|)
(declare-const s64 |Z|)
(declare-const s65 |Z|)
(declare-const s92 |Z|)
(declare-const s94 |Z|)
(declare-const s66 |Z|)
(declare-const s67 |Z|)
(declare-const s68 |Z|)
(declare-const s52 |Z|)
(declare-const s57 |Z|)
(declare-const s59 |Z|)
(declare-const s36 |Z|)
(declare-const s37 |Z|)
(declare-const NATURAL1 |POW Z|)
(assert (!
  (forall ((e |Z|)) (= (|set.in Z| e NATURAL1) (<= 1 e)))
  :named |ax.set.in.NATURAL1|))
(assert (!
  (forall ((s |POW Z|) (t |POW Z|))
    (=
      (= s t)
      (forall ((e |Z|)) (= (|set.in Z| e s) (|set.in Z| e t)))))
  :named |ax.set.eq Z|))
(define-sort |? Z| () (-> |Z| Bool))
(declare-const |set.intent Z| (-> |? Z| |POW Z|))
(assert (!
  (forall ((p |? Z|))
    (forall ((x |Z|))
      (= (|set.in Z| x (|set.intent Z| p))
         (@ p x))))
  :named |ax:set.in.intent Z|))
(assert (!
  (forall ((s |POW (BOOL x Z)|) (t |POW (BOOL x Z)|))
    (=
      (= s t)
      (forall ((e |(BOOL x Z)|)) (= (|set.in (BOOL x Z)| e s) (|set.in (BOOL x Z)| e t)))))
  :named |ax.set.eq (BOOL x Z)|))
(define-sort |? (BOOL x Z)| () (-> |(BOOL x Z)| Bool))
(declare-const |set.intent (BOOL x Z)| (-> |? (BOOL x Z)| |POW (BOOL x Z)|))
(assert (!
  (forall ((p |? (BOOL x Z)|))
    (forall ((x |(BOOL x Z)|))
      (= (|set.in (BOOL x Z)| x (|set.intent (BOOL x Z)| p))
         (@ p x))))
  :named |ax:set.in.intent (BOOL x Z)|))
(declare-fun |interval| (|Z| |Z|) |POW Z|)
 (assert (!
    (forall ((l |Z|) (u |Z|) (e |Z|))
        (= (|set.in Z| e (|interval| l u))
            (and (<= l e) (<= e u))))
    :named |ax.set.in.interval|))
(declare-const NATURAL |POW Z|)
(assert (!
  (forall ((e |Z|)) (= (|set.in Z| e NATURAL) (<= 0 e)))
  :named |ax.set.in.NATURAL|))
(assert (!
  (|set.in Z| s24 s21)
  :named |Define:ctx:9|))
(assert (!
  (= s24 255)
  :named |Define:ctx:14|))
(assert (!
  (|set.in Z| s25 (|interval| 0 s24))
  :named |Define:ctx:15|))
(assert (!
  (|set.in Z| s26 (|interval| 0 s24))
  :named |Define:ctx:16|))
(assert (!
  (|set.in Z| s89 s21)
  :named |Define:ctx:98|))
(assert (!
  (<= 0 s89)
  :named |Define:ctx:99|))
(assert (!
  (<= 2 s89)
  :named |Define:ctx:100|))
(assert (!
  (= s90 (- s89 1))
  :named |Define:ctx:102|))
(assert (!
  (= s93 (* s89 s107))
  :named |Define:ctx:126|))
(assert (!
  (< s107 s24)
  :named |Define:ctx:128|))
(assert (!
  (= s21 (|interval| 0 255))
  :named |Define:ctx:6|))
(assert (!
  (|set.in Z| s25 s21)
  :named |Define:ctx:10|))
(assert (!
  (|set.in Z| s26 s21)
  :named |Define:ctx:11|))
(assert (!
  (not
  (= s25 s26))
  :named |Define:ctx:17|))
(assert (!
  (= s27 (|set.intent Z| (lambda ((_c0 |Z|)) (or (= _c0 s25)(= _c0 s26)))))
  :named |Define:ctx:18|))
(assert (!
  (= s28 (|set.intent (BOOL x Z)| (lambda ((_c0 |(BOOL x Z)|)) (or (= _c0 (maplet true s25))(= _c0 (maplet false s26))))))
  :named |Define:ctx:19|))
(assert (!
  (|set.in Z| s29 s21)
  :named |Define:ctx:20|))
(assert (!
  (|set.in Z| s30 s21)
  :named |Define:ctx:21|))
(assert (!
  (|set.in Z| s38 s21)
  :named |Define:ctx:33|))
(assert (!
  (|set.in Z| s39 s21)
  :named |Define:ctx:34|))
(assert (!
  (|set.in Z| s40 s21)
  :named |Define:ctx:36|))
(assert (!
  (|set.in Z| s41 s21)
  :named |Define:ctx:38|))
(assert (!
  (|set.in Z| s44 s21)
  :named |Define:ctx:42|))
(assert (!
  (|set.in Z| s50 s21)
  :named |Define:ctx:49|))
(assert (!
  (|set.in Z| s51 s21)
  :named |Define:ctx:51|))
(assert (!
  (|set.in Z| s60 s21)
  :named |Define:ctx:61|))
(assert (!
  (|set.in Z| s61 s21)
  :named |Define:ctx:62|))
(assert (!
  (|set.in Z| s62 s21)
  :named |Define:ctx:64|))
(assert (!
  (|set.in Z| s63 s21)
  :named |Define:ctx:65|))
(assert (!
  (|set.in Z| s64 s21)
  :named |Define:ctx:67|))
(assert (!
  (|set.in Z| s65 s21)
  :named |Define:ctx:69|))
(assert (!
  (|set.in Z| s66 s21)
  :named |Define:ctx:71|))
(assert (!
  (|set.in Z| s67 s21)
  :named |Define:ctx:73|))
(assert (!
  (|set.in Z| s68 s21)
  :named |Define:ctx:75|))
(assert (!
  (|set.in Z| s69 s21)
  :named |Define:ctx:77|))
(assert (!
  (|set.in Z| s90 s21)
  :named |Define:ctx:101|))
(assert (!
  (|set.in Z| s91 s21)
  :named |Define:ctx:103|))
(assert (!
  (|set.in Z| s92 s21)
  :named |Define:ctx:104|))
(assert (!
  (|set.in Z| s93 s21)
  :named |Define:ctx:106|))
(assert (!
  (|set.in Z| s94 s21)
  :named |Define:ctx:107|))
(assert (!
  (= s94 (- s93 1))
  :named |Define:ctx:108|))
(assert (!
  (|set.in Z| s107 s21)
  :named |Define:ctx:123|))
(assert (!
  (|set.in Z| s108 s21)
  :named |Define:ctx:124|))
(assert (!
  (= s108 (- s107 1))
  :named |Define:ctx:125|))
(assert (!
  (<= 1 s107)
  :named |Define:ctx:127|))
(assert (!
  (|set.in Z| s109 s21)
  :named |Define:ctx:129|))
(assert (!
  (|set.in Z| s110 s21)
  :named |Define:ctx:130|))
(assert (!
  (|set.in Z| s119 s21)
  :named |Define:ctx:141|))
(assert (!
  (|set.in Z| s120 s21)
  :named |Define:ctx:142|))
(assert (!
  (= s39 (+ s38 s35))
  :named |Define:ctx:35|))
(assert (!
  (= s40 (+ s38 s36))
  :named |Define:ctx:37|))
(assert (!
  (= s41 (+ s38 s37))
  :named |Define:ctx:39|))
(assert (!
  (<= 2 s50)
  :named |Define:ctx:50|))
(assert (!
  (= s51 (- s50 1))
  :named |Define:ctx:52|))
(assert (!
  (= s61 (+ s60 s52))
  :named |Define:ctx:63|))
(assert (!
  (= s63 (+ s62 s53))
  :named |Define:ctx:66|))
(assert (!
  (= s64 (+ s62 s54))
  :named |Define:ctx:68|))
(assert (!
  (= s65 (+ s62 s55))
  :named |Define:ctx:70|))
(assert (!
  (= s66 (+ s62 s56))
  :named |Define:ctx:72|))
(assert (!
  (= s67 (+ s62 s57))
  :named |Define:ctx:74|))
(assert (!
  (= s68 (+ s62 s58))
  :named |Define:ctx:76|))
(assert (!
  (= s69 (+ s62 s59))
  :named |Define:ctx:78|))
(assert (!
  (= s92 (- s91 1))
  :named |Define:ctx:105|))
(assert (!
  (|set.in Z| s35 NATURAL)
  :named |Define:ctx:26|))
(assert (!
  (<= 2 s35)
  :named |Define:ctx:27|))
(assert (!
  (|set.in Z| s36 NATURAL)
  :named |Define:ctx:28|))
(assert (!
  (<= 2 s36)
  :named |Define:ctx:29|))
(assert (!
  (|set.in Z| s37 NATURAL)
  :named |Define:ctx:30|))
(assert (!
  (<= 2 s37)
  :named |Define:ctx:31|))
(assert (!
  (<= s35 s37)
  :named |Define:ctx:32|))
(assert (!
  (|set.in Z| s52 NATURAL1)
  :named |Define:ctx:53|))
(assert (!
  (|set.in Z| s53 NATURAL1)
  :named |Define:ctx:54|))
(assert (!
  (|set.in Z| s54 NATURAL1)
  :named |Define:ctx:55|))
(assert (!
  (|set.in Z| s55 NATURAL1)
  :named |Define:ctx:56|))
(assert (!
  (|set.in Z| s56 NATURAL1)
  :named |Define:ctx:57|))
(assert (!
  (|set.in Z| s57 NATURAL1)
  :named |Define:ctx:58|))
(assert (!
  (|set.in Z| s58 NATURAL1)
  :named |Define:ctx:59|))
(assert (!
  (|set.in Z| s59 NATURAL1)
  :named |Define:ctx:60|))
(assert (!
  (not
    (< (+ 13 s89) s24))
  :named |Goal|))
(check-sat)
(exit)
